# Solution for model r5_t9_m8_8
# Finished Task: 7 / 9
# Makespan: 482.0, Total Distance: 607.0, Total Time: 0.0129
# R O S F
0 0 5 0.0 0.0
1 1 7 0.0 0.0
2 2 6 0.0 0.0
3 3 9 0.0 0.0
4 4 -1 0.0 0.0
5 0 8 171.0 191.0
6 2 11 230.0 262.0
7 1 10 191.0 222.0
8 0 -1 430.0 457.0
9 3 -1 174.0 205.0
10 1 -1 366.0 392.0
11 2 -1 457.0 482.0
12 -1 -1 -1.0 -1.0
13 -1 -1 -1.0 -1.0
